<?xml version = "1.0" standalone="yes"?>
<!-- This file has been generated by DOcplex version 2.23.222  -->
<CPLEXSolution version="1.0">
 <header
   problemName="CVRP"
   objectiveValue="19270.8"
  />
 <variables>
  <variable name="x_0_1" index="0" value="1.00000"/>
  <variable name="x_0_2" index="1" value="1.00000"/>
  <variable name="x_0_3" index="2" value="1.00000"/>
  <variable name="x_0_4" index="3" value="1.00000"/>
  <variable name="x_0_5" index="4" value="1.00000"/>
  <variable name="x_0_8" index="7" value="1.00000"/>
  <variable name="x_0_10" index="9" value="1.00000"/>
  <variable name="x_0_12" index="11" value="1.00000"/>
  <variable name="x_0_13" index="12" value="1.00000"/>
  <variable name="x_0_15" index="14" value="1.00000"/>
  <variable name="x_0_16" index="15" value="1.00000"/>
  <variable name="x_0_17" index="16" value="1.00000"/>
  <variable name="x_0_18" index="17" value="1.00000"/>
  <variable name="x_0_23" index="22" value="1.00000"/>
  <variable name="x_0_26" index="25" value="1.00000"/>
  <variable name="x_1_9" index="35" value="1.00000"/>
  <variable name="x_2_20" index="73" value="1.00000"/>
  <variable name="x_3_14" index="94" value="1.00000"/>
  <variable name="x_4_0" index="108" value="1.00000"/>
  <variable name="x_5_7" index="141" value="1.00000"/>
  <variable name="x_6_0" index="162" value="1.00000"/>
  <variable name="x_7_0" index="189" value="1.00000"/>
  <variable name="x_8_11" index="226" value="1.00000"/>
  <variable name="x_9_0" index="243" value="1.00000"/>
  <variable name="x_10_24" index="293" value="1.00000"/>
  <variable name="x_11_0" index="297" value="1.00000"/>
  <variable name="x_12_0" index="324" value="1.00000"/>
  <variable name="x_13_0" index="351" value="1.00000"/>
  <variable name="x_14_25" index="402" value="1.00000"/>
  <variable name="x_15_6" index="411" value="1.00000"/>
  <variable name="x_16_22" index="453" value="1.00000"/>
  <variable name="x_17_0" index="459" value="1.00000"/>
  <variable name="x_18_0" index="486" value="1.00000"/>
  <variable name="x_19_0" index="513" value="1.00000"/>
  <variable name="x_20_0" index="540" value="1.00000"/>
  <variable name="x_21_0" index="567" value="1.00000"/>
  <variable name="x_22_0" index="594" value="1.00000"/>
  <variable name="x_23_19" index="640" value="1.00000"/>
  <variable name="x_24_27" index="674" value="1.00000"/>
  <variable name="x_25_21" index="696" value="1.00000"/>
  <variable name="x_26_0" index="702" value="1.00000"/>
  <variable name="x_27_0" index="729" value="1.00000"/>
  <variable name="u_1" index="756" value="48.00000"/>
  <variable name="u_2" index="757" value="14.00000"/>
  <variable name="u_3" index="758" value="15.00000"/>
  <variable name="u_4" index="759" value="60.00000"/>
  <variable name="u_5" index="760" value="32.00000"/>
  <variable name="u_6" index="761" value="68.00000"/>
  <variable name="u_7" index="762" value="60.00000"/>
  <variable name="u_8" index="763" value="52.00000"/>
  <variable name="u_9" index="764" value="68.00000"/>
  <variable name="u_10" index="765" value="30.00000"/>
  <variable name="u_11" index="766" value="68.00000"/>
  <variable name="u_12" index="767" value="22.00000"/>
  <variable name="u_13" index="768" value="68.00000"/>
  <variable name="u_14" index="769" value="22.00000"/>
  <variable name="u_15" index="770" value="51.00000"/>
  <variable name="u_16" index="771" value="51.00000"/>
  <variable name="u_17" index="772" value="67.00000"/>
  <variable name="u_18" index="773" value="54.00000"/>
  <variable name="u_19" index="774" value="68.00000"/>
  <variable name="u_20" index="775" value="68.00000"/>
  <variable name="u_21" index="776" value="68.00000"/>
  <variable name="u_22" index="777" value="68.00000"/>
  <variable name="u_23" index="778" value="61.00000"/>
  <variable name="u_24" index="779" value="40.00000"/>
  <variable name="u_25" index="780" value="60.00000"/>
  <variable name="u_26" index="781" value="68.00000"/>
  <variable name="u_27" index="782" value="65.00000"/>
 </variables>
</CPLEXSolution>
